\ This file was automatically generated by Zimpl
\ var w1 <= 0;
\ var w2 <= 0;
\ maximize Z :      8*w1 + 21*w2;
\ subto r1:     2*w1 + 3*w2 >= 1;
\ subto r2:     1*w1 + 7*w2 >= 1;
\Problem name: pd
Maximize
 Z:  +8 w1 +21 w2
Subject to
 r1_1:
  +3 w2 +2 w1 >= 1
 r2_1:
  +7 w2 + w1 >= 1
Bounds
 w1 = 0
 w2 = 0
End
